peakDumbCharging = 11100; 
Machine = anon_enum(16); 
machineSpeed = [3700,3700,3700,3700,3700,3700,3700,3700,3700,3700,3700,3700,3700,3700,3700,3700]; 
machineLoad = [3700,3700,3700,3700,3700,3700,3700,3700,3700,3700,3700,3700,3700,3700,3700,3700]; 
Car = anon_enum(15); 
demandCar = [7720,9600,3360,2120,15520,9240,9120,28280,35320,6160,10280,920,24760,33240,12000]; 
arrivalCar = [79,69,67,66,60,53,50,44,42,40,36,32,30,30,18]; 
departureCar = [82,72,70,68,67,57,53,54,64,43,40,33,38,56,22]; 
